Route #1: 34 2 37 8 78 20 75 25 41 77 51 
Route #2: 13 74 29 60 3 42 
Route #3: 58 32 4 22 45 50 70 53 
Route #4: 11 52 28 79 18 48 14 
Route #5: 1 7 21 40 
Route #6: 19 26 35 65 69 56 47 57 61 16 43 68 
Route #7: 12 44 23 62 63 71 10 
Route #8: 76 72 54 9 55 15 33 46 64 39 
Route #9: 49 73 38 66 67 36 
Route #10: 17 31 27 59 30 6 24 5 
Cost 1836.8389976301557
